NAME : single
TYPE : ATSP
DIMENSION : 6
EDGE_WEIGHT_TYPE : EXPLICIT
EDGE_WEIGHT_FORMAT : FULL_MATRIX
EDGE_WEIGHT_SECTION
0 50200 50199 50293 50322 138 
0 0 193 481 50000 50000 
0 193 0 478 50000 50000 
0 481 478 0 50000 50000 
0 50000 50000 50000 0 50000 
0 50000 50000 50000 50000 0 
EOF